8	7	2	7	1	2	12	2	7	18	18	14	20	7	15	8	14	19	17	17
6	16	20	2	16	16	10	18	13	17	15	4	15	10	19	20	8	16	14	2
14	7	6	18	16	8	13	19	8	7	4	16	12	3	6	7	12	10	9	6
12	20	1	5	17	20	5	18	16	14	7	6	16	13	13	15	8	19	3	18
